
n_res = 4;
rcap = [19, 17, 434, 496];
rtype = [1, 1, 2, 2];
n_tasks = 100;
modes =  [{1, 2, 3}, {4, 5, 6}, {7, 8, 9}, {10, 11, 12}, {13, 14, 15}, {16, 17, 18}, {19, 20, 21}, {22, 23, 24}, {25, 26, 27}, {28, 29, 30}, {31, 32, 33}, {34, 35, 36}, {37, 38, 39}, {40, 41, 42}, {43, 44, 45}, {46, 47, 48}, {49, 50, 51}, {52, 53, 54}, {55, 56, 57}, {58, 59, 60}, {61, 62, 63}, {64, 65, 66}, {67, 68, 69}, {70, 71, 72}, {73, 74, 75}, {76, 77, 78}, {79, 80, 81}, {82, 83, 84}, {85, 86, 87}, {88, 89, 90}, {91, 92, 93}, {94, 95, 96}, {97, 98, 99}, {100, 101, 102}, {103, 104, 105}, {106, 107, 108}, {109, 110, 111}, {112, 113, 114}, {115, 116, 117}, {118, 119, 120}, {121, 122, 123}, {124, 125, 126}, {127, 128, 129}, {130, 131, 132}, {133, 134, 135}, {136, 137, 138}, {139, 140, 141}, {142, 143, 144}, {145, 146, 147}, {148, 149, 150}, {151, 152, 153}, {154, 155, 156}, {157, 158, 159}, {160, 161, 162}, {163, 164, 165}, {166, 167, 168}, {169, 170, 171}, {172, 173, 174}, {175, 176, 177}, {178, 179, 180}, {181, 182, 183}, {184, 185, 186}, {187, 188, 189}, {190, 191, 192}, {193, 194, 195}, {196, 197, 198}, {199, 200, 201}, {202, 203, 204}, {205, 206, 207}, {208, 209, 210}, {211, 212, 213}, {214, 215, 216}, {217, 218, 219}, {220, 221, 222}, {223, 224, 225}, {226, 227, 228}, {229, 230, 231}, {232, 233, 234}, {235, 236, 237}, {238, 239, 240}, {241, 242, 243}, {244, 245, 246}, {247, 248, 249}, {250, 251, 252}, {253, 254, 255}, {256, 257, 258}, {259, 260, 261}, {262, 263, 264}, {265, 266, 267}, {268, 269, 270}, {271, 272, 273}, {274, 275, 276}, {277, 278, 279}, {280, 281, 282}, {283, 284, 285}, {286, 287, 288}, {289, 290, 291}, {292, 293, 294}, {295, 296, 297}, {298, 299, 300}];
succ =  [{68, 52, 47, 44, 41, 40, 38, 37, 36, 32, 31, 23, 20, 18}, {55, 50, 47, 41, 39, 38, 37, 35, 31, 30, 19, 14}, {57, 43, 40, 36, 35, 32, 31, 29, 23, 22, 19}, {68, 60, 59, 57, 55, 49, 44, 43, 42, 40, 38, 37, 36, 35, 30, 22, 21}, {68, 57, 50, 48, 47, 44, 43, 40, 37, 36, 35, 34, 33, 32, 16}, {50, 47, 44, 43, 38, 35, 30, 29, 22, 16}, {68, 59, 50, 43, 39, 38, 36, 25, 20, 17}, {59, 52, 50, 47, 45, 44, 43, 42, 39, 37, 35, 32, 31, 30, 17}, {68, 59, 55, 52, 44, 42, 37, 36, 35, 34, 30, 22, 17}, {70, 60, 59, 55, 52, 50, 49, 48, 47, 46, 45, 44, 43, 42, 39, 38, 36, 35}, {60, 57, 52, 48, 46, 44, 39, 35, 33, 31}, {72, 64, 61, 60, 57, 55, 53, 51, 49, 48, 47, 39, 33, 30}, {52, 49, 44, 40, 35, 18}, {72, 71, 70, 60, 59, 57, 52, 49, 48, 45, 44, 42, 40}, {62, 52, 51, 46, 33, 32}, {72, 64, 62, 61, 60, 54, 53, 52, 51, 49, 42, 39}, {82, 72, 71, 70, 64, 63, 62, 60, 57, 49, 48, 46, 40}, {82, 81, 71, 67, 64, 63, 62, 60, 59, 57, 48, 34}, {72, 70, 63, 61, 60, 56, 52, 51, 46, 33}, {73, 72, 70, 63, 61, 57, 54, 48, 42, 35}, {72, 66, 64, 61, 54, 53, 52, 50, 47, 39}, {70, 64, 61, 53, 48, 46, 45, 39}, {72, 62, 61, 56, 53, 45, 30}, {82, 76, 72, 70, 64, 63, 62, 61, 60, 56, 54, 48, 46}, {82, 71, 70, 63, 52, 51, 48, 45, 44}, {82, 63, 60, 54, 44, 35}, {99, 82, 76, 70, 63, 57, 55, 54, 48, 44}, {82, 63, 60, 58, 56, 53, 52, 49, 46}, {73, 71, 68, 62, 61, 60, 59, 55, 52, 42}, {100, 99, 82, 76, 75, 73, 71, 70, 63, 58, 46}, {100, 82, 81, 73, 72, 71, 70, 66, 62, 58, 49}, {82, 76, 70, 69, 64, 63, 61, 60, 58, 56, 53}, {100, 82, 81, 75, 73, 71, 67, 59, 45}, {80, 70, 61, 56, 45}, {100, 80, 79, 75, 69, 67, 66, 62, 58, 53}, {99, 81, 80, 76, 75, 69, 67, 66, 58, 56}, {99, 73, 70, 64, 58, 46}, {100, 81, 80, 77, 76, 73, 69, 67, 66, 65, 63, 61}, {99, 98, 82, 81, 76, 69, 67, 65, 63, 56}, {99, 80, 75, 69, 66, 56, 54}, {100, 81, 80, 78, 76, 62, 54}, {99, 97, 93, 84, 82, 81, 80, 79, 78, 77, 76, 69, 66, 65}, {100, 99, 80, 79, 66, 63, 58}, {96, 80, 78, 77, 73, 67, 65, 64, 61}, {99, 98, 78, 76, 69, 54}, {81, 80, 79, 78, 77, 69, 67, 66, 65}, {99, 98, 97, 96, 90, 84, 80, 78, 77, 75, 65}, {100, 93, 92, 84, 80, 79, 78, 77, 74, 66}, {98, 96, 84, 79, 77, 76, 75, 69, 65}, {98, 84, 77, 76, 69, 67, 65}, {100, 92, 81, 78, 58}, {100, 99, 98, 97, 95, 94, 93, 80, 79, 78, 76, 69}, {99, 97, 90, 81, 77, 71, 65}, {96, 92, 79, 58}, {100, 98, 93, 80, 77, 69, 65}, {100, 97, 96, 95, 93, 90, 83, 79, 78, 77, 73}, {93, 92, 91, 84, 80, 79, 74, 66}, {97, 93, 90, 84, 77, 65}, {99, 98, 96, 95, 92, 90, 77, 74}, {100, 96, 93, 90, 84, 79, 78, 74}, {93, 91, 90, 84, 79, 75, 74}, {99, 98, 93, 92, 90, 84, 83, 77}, {96, 93, 92, 90, 84, 83, 78}, {95, 91, 90, 85, 75}, {95, 94, 89, 74}, {98, 96, 94, 90, 88, 87, 86, 85}, {97, 93, 91, 90, 88, 86, 83}, {99, 94, 92, 91, 86, 85, 83}, {92, 91, 90, 88, 87, 86, 85}, {90, 89, 88, 86, 85, 83}, {96, 92, 88, 87, 78}, {89, 88, 87, 80}, {92, 89, 88, 86, 85}, {88, 86, 85, 83}, {89, 88, 83}, {88, 86, 85}, {91, 89}, {89, 85}, {86, 85}, {86, 85}, {88, 85}, {87, 85}, {87}, {86}, {}, {}, {}, {}, {}, {}, {}, {}, {}, {}, {}, {}, {}, {}, {}, {}];
n_opt = 300;
dur = [7, 9, 10, 2, 5, 5, 8, 9, 10, 6, 7, 10, 1, 3, 4, 1, 6, 8, 3, 4, 7, 1, 4, 5, 3, 9, 10, 5, 7, 10, 4, 7, 8, 4, 7, 10, 2, 10, 10, 4, 7, 10, 2, 2, 5, 3, 9, 10, 3, 7, 9, 1, 5, 5, 4, 5, 10, 3, 5, 7, 1, 6, 8, 4, 5, 7, 5, 7, 7, 3, 6, 6, 2, 6, 9, 4, 8, 9, 8, 10, 10, 1, 4, 10, 1, 2, 3, 5, 5, 8, 2, 4, 6, 1, 8, 9, 1, 2, 5, 4, 7, 8, 4, 10, 10, 2, 3, 8, 3, 5, 6, 3, 8, 9, 2, 5, 9, 1, 3, 7, 4, 5, 10, 1, 2, 5, 6, 8, 9, 1, 6, 6, 3, 5, 7, 1, 3, 9, 2, 3, 4, 1, 2, 8, 3, 7, 10, 1, 7, 8, 1, 3, 10, 9, 9, 10, 3, 4, 9, 2, 3, 6, 6, 8, 9, 5, 8, 9, 5, 8, 9, 1, 2, 6, 1, 3, 5, 4, 5, 9, 3, 4, 9, 2, 5, 6, 3, 7, 9, 3, 5, 10, 2, 6, 9, 7, 8, 8, 2, 5, 6, 3, 4, 9, 6, 7, 9, 4, 4, 8, 2, 3, 9, 5, 6, 7, 5, 6, 6, 3, 5, 9, 2, 5, 10, 3, 3, 5, 4, 9, 10, 1, 2, 3, 1, 6, 7, 6, 7, 9, 2, 4, 7, 6, 7, 10, 4, 6, 8, 2, 6, 7, 6, 7, 9, 1, 7, 8, 3, 3, 7, 2, 3, 8, 1, 8, 10, 1, 8, 10, 1, 5, 10, 2, 4, 8, 1, 3, 3, 2, 3, 9, 3, 4, 9, 1, 7, 9, 1, 5, 10, 1, 8, 9, 1, 2, 4, 5, 6, 8];
rreq = [|0, 5, 5, 0, 4, 0, 4, 3, 0, 0, 3, 0, 4, 4, 4, 5, 0, 1, 4, 0, 2, 3, 0, 1, 2, 0, 2, 0, 0, 0, 4, 0, 2, 5, 4, 0, 0, 0, 2, 2, 2, 0, 0, 5, 0, 0, 0, 3, 0, 2, 0, 3, 0, 3, 0, 5, 0, 0, 4, 0, 1, 0, 1, 2, 0, 0, 3, 0, 2, 2, 2, 0, 2, 0, 0, 2, 1, 0, 0, 4, 0, 3, 0, 3, 0, 0, 0, 0, 2, 2, 0, 0, 0, 0, 0, 0, 2, 2, 1, 0, 3, 0, 3, 0, 1, 3, 2, 0, 4, 3, 0, 0, 3, 2, 0, 0, 3, 0, 0, 0, 0, 0, 2, 0, 0, 0, 0, 0, 0, 2, 0, 2, 4, 0, 2, 3, 0, 0, 0, 0, 0, 0, 3, 0, 0, 0, 0, 0, 0, 0, 0, 3, 2, 1, 0, 0, 0, 0, 2, 2, 0, 1, 0, 0, 1, 0, 5, 5, 0, 1, 1, 4, 4, 0, 0, 0, 0, 0, 0, 2, 0, 4, 0, 5, 0, 2, 2, 0, 0, 4, 3, 0, 0, 0, 2, 0, 0, 2, 5, 0, 0, 4, 0, 3, 3, 0, 0, 0, 1, 0, 4, 3, 2, 0, 2, 0, 3, 3, 0, 0, 4, 3, 0, 3, 2, 5, 0, 0, 3, 3, 0, 3, 2, 0, 0, 0, 0, 3, 0, 0, 0, 0, 1, 0, 3, 0, 0, 3, 0, 0, 1, 1, 0, 2, 0, 0, 3, 1, 4, 0, 0, 5, 4, 0, 3, 2, 1, 0, 1, 1, 2, 0, 2, 4, 0, 0, 0, 0, 1, 0, 1, 1, 1, 0, 1, 0, 2, 2, 0, 4, 0, 4, 0, 0, 0, 0, 1, 0, 0, 0
 |2, 0, 0, 3, 0, 1, 0, 0, 4, 4, 0, 3, 0, 0, 0, 0, 1, 0, 0, 2, 0, 0, 2, 0, 0, 2, 0, 4, 4, 4, 0, 1, 0, 0, 0, 3, 4, 3, 0, 0, 0, 1, 3, 0, 2, 5, 3, 0, 4, 0, 2, 0, 1, 0, 5, 0, 5, 1, 0, 1, 0, 1, 0, 0, 3, 3, 0, 4, 0, 0, 0, 3, 0, 3, 2, 0, 0, 4, 2, 0, 2, 0, 2, 0, 2, 1, 1, 3, 0, 0, 2, 1, 1, 3, 2, 2, 0, 0, 0, 1, 0, 1, 0, 1, 0, 0, 0, 1, 0, 0, 3, 3, 0, 0, 3, 3, 0, 2, 1, 1, 3, 2, 0, 5, 5, 5, 5, 2, 1, 0, 1, 0, 0, 3, 0, 0, 2, 2, 5, 2, 2, 4, 0, 3, 4, 3, 2, 4, 2, 2, 4, 0, 0, 0, 3, 1, 3, 2, 0, 0, 3, 0, 4, 2, 0, 4, 0, 0, 5, 0, 0, 0, 0, 2, 3, 3, 2, 5, 5, 0, 2, 0, 1, 0, 3, 0, 0, 4, 4, 0, 0, 1, 4, 2, 0, 4, 4, 0, 0, 4, 3, 0, 3, 0, 0, 3, 2, 5, 0, 3, 0, 0, 0, 5, 0, 3, 0, 0, 1, 5, 0, 0, 4, 0, 0, 0, 2, 1, 0, 0, 2, 0, 0, 2, 5, 4, 4, 0, 3, 3, 4, 4, 0, 5, 0, 3, 4, 0, 4, 1, 0, 0, 3, 0, 3, 4, 0, 0, 0, 3, 3, 0, 0, 2, 0, 0, 0, 3, 0, 0, 0, 3, 0, 0, 1, 1, 2, 2, 0, 5, 0, 0, 0, 3, 0, 3, 0, 0, 4, 0, 3, 0, 3, 2, 4, 4, 0, 2, 2, 2
 |5, 5, 2, 7, 4, 2, 5, 2, 2, 9, 7, 7, 9, 6, 5, 5, 5, 4, 3, 2, 1, 9, 8, 8, 7, 6, 6, 4, 3, 3, 3, 1, 1, 9, 3, 3, 5, 3, 1, 4, 3, 3, 8, 8, 8, 6, 6, 6, 8, 5, 1, 6, 3, 2, 8, 5, 4, 7, 7, 3, 7, 6, 3, 4, 4, 4, 4, 2, 2, 7, 4, 1, 6, 4, 2, 8, 7, 6, 6, 4, 2, 6, 4, 4, 6, 5, 3, 8, 4, 1, 10, 8, 8, 9, 7, 3, 5, 3, 2, 9, 9, 9, 8, 5, 5, 8, 6, 5, 4, 3, 3, 8, 7, 4, 4, 4, 3, 6, 3, 3, 7, 5, 4, 6, 4, 3, 8, 8, 8, 3, 3, 3, 1, 1, 1, 3, 3, 3, 5, 3, 2, 4, 4, 4, 5, 5, 3, 4, 3, 1, 5, 3, 3, 8, 6, 3, 9, 7, 7, 8, 5, 5, 9, 7, 4, 4, 3, 2, 5, 3, 3, 6, 6, 4, 5, 5, 4, 3, 2, 2, 7, 6, 6, 5, 4, 4, 7, 7, 5, 8, 8, 6, 2, 1, 1, 3, 2, 1, 7, 4, 4, 6, 5, 3, 1, 1, 1, 8, 4, 2, 6, 5, 5, 5, 4, 2, 8, 6, 3, 2, 2, 1, 10, 8, 8, 6, 6, 6, 8, 6, 2, 7, 5, 5, 2, 2, 2, 7, 6, 6, 3, 3, 2, 10, 9, 9, 6, 5, 5, 9, 9, 9, 9, 5, 3, 9, 8, 8, 4, 4, 4, 6, 6, 5, 7, 6, 6, 1, 1, 1, 3, 3, 1, 9, 8, 7, 8, 6, 6, 7, 5, 4, 2, 1, 1, 3, 3, 3, 6, 4, 3, 8, 7, 5, 6, 6, 6, 6, 5, 3
 |8, 8, 4, 9, 8, 7, 10, 8, 6, 8, 7, 7, 5, 2, 1, 6, 2, 2, 7, 6, 6, 7, 4, 3, 9, 7, 6, 6, 5, 4, 6, 6, 6, 2, 2, 2, 6, 5, 5, 5, 3, 3, 5, 4, 1, 7, 7, 7, 8, 5, 3, 7, 7, 7, 3, 3, 3, 8, 4, 1, 8, 8, 8, 5, 4, 3, 3, 3, 3, 8, 8, 8, 7, 6, 1, 5, 5, 5, 6, 4, 3, 8, 7, 3, 7, 7, 5, 4, 4, 3, 3, 2, 1, 7, 6, 6, 9, 8, 8, 3, 2, 2, 6, 6, 6, 8, 8, 8, 5, 5, 4, 7, 5, 4, 5, 4, 3, 9, 6, 3, 5, 3, 2, 6, 3, 2, 6, 6, 6, 8, 7, 6, 7, 7, 7, 6, 5, 4, 8, 8, 5, 9, 8, 8, 7, 6, 5, 9, 6, 1, 8, 6, 4, 2, 2, 2, 9, 9, 7, 10, 9, 9, 4, 4, 4, 3, 2, 1, 2, 2, 1, 7, 6, 6, 6, 4, 3, 8, 6, 4, 8, 7, 4, 1, 1, 1, 9, 7, 6, 8, 7, 4, 4, 4, 4, 8, 7, 6, 5, 4, 2, 6, 5, 2, 8, 5, 4, 7, 6, 6, 8, 5, 3, 2, 2, 1, 4, 3, 2, 7, 6, 5, 7, 7, 7, 5, 5, 2, 8, 7, 5, 8, 6, 4, 8, 8, 5, 8, 7, 6, 7, 4, 2, 9, 8, 8, 9, 6, 3, 7, 4, 2, 8, 7, 6, 8, 8, 4, 9, 9, 8, 7, 7, 7, 7, 6, 5, 7, 6, 5, 9, 6, 3, 7, 5, 5, 7, 6, 5, 7, 5, 3, 6, 4, 3, 9, 9, 8, 10, 10, 10, 1, 1, 1, 8, 7, 7, 9, 4, 3|];